jobs  (incl. supersource/sink ):	52
RESOURCES
- renewable                 : 4 R
- nonrenewable              : 2 N
- doubly constrained        : 0 D
************************************************************************
PRECEDENCE RELATIONS:
jobnr.    #modes  #successors   successors
1	1	14		2 3 4 5 6 7 12 13 14 16 18 20 22 23 
2	9	8		48 39 34 32 26 25 21 8 
3	9	8		51 50 37 28 27 26 21 9 
4	9	7		50 46 27 26 19 17 10 
5	9	8		35 33 29 28 27 26 24 11 
6	9	8		48 44 43 38 34 33 21 15 
7	9	8		50 47 45 42 38 35 34 19 
8	9	10		50 47 45 44 42 38 37 36 35 30 
9	9	10		48 46 45 44 43 42 36 35 34 30 
10	9	9		47 45 44 37 36 35 34 32 30 
11	9	6		47 45 42 34 30 19 
12	9	8		50 48 47 46 45 43 31 26 
13	9	7		48 45 44 43 37 30 26 
14	9	7		48 47 44 43 34 33 31 
15	9	6		50 49 46 45 35 26 
16	9	5		49 44 35 31 28 
17	9	5		44 43 42 34 30 
18	9	5		50 48 44 43 26 
19	9	4		49 44 43 31 
20	9	3		45 31 26 
21	9	3		49 47 31 
22	9	3		44 43 32 
23	9	3		42 36 31 
24	9	4		45 43 42 41 
25	9	4		47 43 42 40 
26	9	3		42 41 40 
27	9	3		48 47 42 
28	9	3		46 42 40 
29	9	3		48 43 41 
30	9	1		31 
31	9	2		41 40 
32	9	2		42 40 
33	9	2		46 41 
34	9	1		40 
35	9	1		40 
36	9	1		41 
37	9	1		41 
38	9	1		46 
39	9	1		40 
40	9	1		52 
41	9	1		52 
42	9	1		52 
43	9	1		52 
44	9	1		52 
45	9	1		52 
46	9	1		52 
47	9	1		52 
48	9	1		52 
49	9	1		52 
50	9	1		52 
51	9	1		52 
52	1	0		
************************************************************************
REQUESTS/DURATIONS
jobnr.	mode	dur	R1	R2	R3	R4	N1	N2	
------------------------------------------------------------------------
1	1	0	0	0	0	0	0	0	
2	1	3	14	25	16	20	25	12	
	2	5	13	24	13	19	24	11	
	3	8	12	22	13	18	24	11	
	4	9	9	20	11	18	23	11	
	5	11	9	19	10	18	23	11	
	6	12	6	17	9	17	23	10	
	7	14	5	13	7	17	22	10	
	8	23	4	13	6	16	22	10	
	9	24	2	11	4	16	21	10	
3	1	10	24	17	28	29	8	23	
	2	11	21	17	26	27	6	23	
	3	12	19	17	23	27	5	23	
	4	13	19	17	21	27	4	23	
	5	16	17	16	18	25	4	23	
	6	20	15	16	16	25	3	23	
	7	22	15	15	12	25	2	23	
	8	25	13	15	12	23	1	23	
	9	27	12	15	7	23	1	23	
4	1	6	18	20	22	25	27	25	
	2	9	15	18	21	22	26	24	
	3	11	13	18	21	19	25	22	
	4	12	13	15	21	14	25	19	
	5	15	10	15	21	12	24	19	
	6	16	10	13	21	11	23	16	
	7	17	7	11	21	7	23	15	
	8	26	5	11	21	3	22	13	
	9	27	4	9	21	2	22	10	
5	1	2	4	26	27	13	27	19	
	2	4	4	26	26	12	23	18	
	3	5	4	26	24	12	20	16	
	4	8	4	26	20	12	18	15	
	5	11	4	25	17	12	15	13	
	6	12	4	25	17	11	13	12	
	7	19	4	25	12	11	8	10	
	8	21	4	24	10	11	4	7	
	9	23	4	24	8	11	3	6	
6	1	4	16	19	28	26	15	4	
	2	6	14	18	25	25	15	4	
	3	7	14	17	24	23	15	4	
	4	8	14	17	21	19	15	3	
	5	10	12	16	20	16	15	2	
	6	22	12	15	19	14	14	2	
	7	23	11	14	17	14	14	1	
	8	24	11	14	13	11	14	1	
	9	29	10	13	12	9	14	1	
7	1	1	22	23	25	23	7	18	
	2	10	20	20	20	20	6	17	
	3	13	18	19	19	16	5	16	
	4	15	16	16	17	15	5	15	
	5	22	13	16	16	13	3	13	
	6	24	11	12	14	9	3	13	
	7	26	8	10	10	7	3	12	
	8	27	6	8	10	5	2	10	
	9	30	6	8	7	4	1	10	
8	1	1	11	25	22	18	19	20	
	2	3	10	25	19	18	19	19	
	3	7	9	25	18	17	18	16	
	4	13	9	25	18	17	15	15	
	5	14	7	25	17	16	13	10	
	6	15	7	25	15	16	12	9	
	7	18	6	25	13	15	12	8	
	8	19	6	25	12	14	9	4	
	9	27	5	25	11	14	8	3	
9	1	8	10	11	11	7	20	27	
	2	20	10	10	9	6	18	26	
	3	22	10	10	9	6	18	25	
	4	22	9	9	8	6	14	26	
	5	23	9	7	7	5	13	26	
	6	24	9	6	6	5	10	26	
	7	25	9	5	5	4	10	26	
	8	26	8	5	3	4	7	26	
	9	29	8	3	3	4	5	26	
10	1	12	22	14	14	9	27	27	
	2	13	22	14	14	7	26	26	
	3	14	22	14	14	7	25	24	
	4	15	21	14	14	7	25	22	
	5	16	21	13	14	6	24	21	
	6	26	21	13	14	6	23	18	
	7	27	21	13	14	5	22	15	
	8	28	20	13	14	5	22	13	
	9	30	20	13	14	4	21	11	
11	1	3	26	6	4	6	28	13	
	2	4	23	6	4	6	25	12	
	3	7	21	5	3	6	24	11	
	4	8	18	5	3	6	21	9	
	5	12	14	4	2	5	21	8	
	6	18	14	4	2	5	17	7	
	7	21	12	3	1	5	16	5	
	8	29	9	3	1	5	14	3	
	9	30	8	3	1	5	10	1	
12	1	7	26	26	8	18	29	25	
	2	8	22	26	8	16	29	25	
	3	11	22	24	8	16	29	25	
	4	18	18	21	8	13	28	24	
	5	19	16	20	7	12	27	23	
	6	20	14	20	7	9	27	23	
	7	21	12	17	7	7	27	23	
	8	22	6	15	6	4	26	22	
	9	23	6	15	6	1	26	22	
13	1	3	11	9	21	10	19	29	
	2	6	11	8	18	9	17	26	
	3	7	11	8	18	9	17	24	
	4	8	11	8	14	8	16	24	
	5	9	10	7	14	7	16	21	
	6	10	10	7	10	7	15	19	
	7	13	10	7	8	7	15	18	
	8	18	9	7	7	6	14	17	
	9	30	9	7	5	5	14	15	
14	1	4	29	22	14	5	14	18	
	2	9	28	20	11	4	14	18	
	3	10	28	20	10	4	14	16	
	4	16	27	17	8	4	14	14	
	5	17	27	16	6	4	14	11	
	6	18	26	14	6	4	14	10	
	7	25	26	11	3	4	14	8	
	8	26	24	8	2	4	14	6	
	9	27	24	7	2	4	14	4	
15	1	2	24	17	8	8	27	27	
	2	7	20	16	8	8	25	24	
	3	9	17	13	8	8	25	19	
	4	15	15	11	8	8	24	15	
	5	16	13	11	8	8	21	13	
	6	17	10	8	8	8	21	9	
	7	18	9	7	8	8	20	9	
	8	19	5	6	8	8	19	6	
	9	29	1	3	8	8	17	3	
16	1	5	26	20	26	13	11	25	
	2	9	25	19	25	11	11	24	
	3	13	25	19	25	10	11	24	
	4	14	25	18	25	10	11	24	
	5	15	25	18	25	8	11	23	
	6	17	25	17	24	7	11	23	
	7	22	25	16	24	6	11	23	
	8	26	25	16	24	5	11	22	
	9	29	25	16	24	5	11	21	
17	1	6	15	26	18	21	20	29	
	2	11	15	24	16	21	15	29	
	3	12	14	22	14	18	14	28	
	4	14	12	20	12	15	12	27	
	5	15	12	19	11	15	10	27	
	6	23	12	18	8	13	8	27	
	7	24	10	16	6	10	7	26	
	8	25	10	15	6	7	4	26	
	9	28	9	14	3	5	3	25	
18	1	2	20	18	28	18	8	19	
	2	3	19	15	28	18	8	16	
	3	8	17	15	28	18	7	16	
	4	14	16	14	28	18	7	15	
	5	16	16	12	28	18	6	13	
	6	23	14	11	28	17	5	11	
	7	24	13	10	28	17	5	11	
	8	25	12	7	28	17	4	8	
	9	27	10	6	28	17	4	7	
19	1	4	17	6	10	16	27	24	
	2	5	17	6	10	14	22	21	
	3	8	13	6	9	13	20	20	
	4	9	12	6	8	13	19	19	
	5	10	10	6	6	11	16	19	
	6	15	9	5	6	11	14	18	
	7	22	5	5	5	10	12	17	
	8	25	5	5	4	8	6	15	
	9	26	3	5	3	8	6	15	
20	1	4	11	11	8	24	9	12	
	2	6	11	11	8	20	8	12	
	3	9	11	11	8	18	8	12	
	4	11	11	10	7	18	8	11	
	5	12	10	10	7	14	8	10	
	6	14	10	9	7	13	7	10	
	7	16	10	9	7	9	7	9	
	8	19	9	8	6	9	7	9	
	9	30	9	8	6	5	7	9	
21	1	10	19	14	19	5	12	6	
	2	11	17	13	18	4	10	5	
	3	16	16	13	17	4	8	5	
	4	18	15	13	17	3	7	5	
	5	20	13	12	16	3	5	4	
	6	21	11	12	14	2	4	4	
	7	23	10	11	14	1	3	4	
	8	27	9	11	12	1	3	4	
	9	28	6	11	12	1	1	4	
22	1	3	29	19	23	28	18	29	
	2	4	26	17	20	27	17	27	
	3	9	21	15	18	27	17	27	
	4	14	20	13	18	26	17	26	
	5	15	15	12	16	25	16	24	
	6	17	15	8	14	25	15	23	
	7	18	12	5	13	24	15	22	
	8	20	7	4	11	24	14	22	
	9	28	4	2	8	24	13	21	
23	1	1	14	22	23	30	18	18	
	2	2	14	21	20	27	17	17	
	3	11	11	20	18	23	16	16	
	4	13	11	19	16	21	14	15	
	5	16	7	18	15	18	13	14	
	6	17	7	17	14	17	12	11	
	7	20	6	15	11	14	10	10	
	8	22	3	14	8	14	9	8	
	9	23	2	14	6	11	8	8	
24	1	3	23	19	24	22	23	9	
	2	4	21	18	21	21	20	8	
	3	15	21	17	20	20	18	7	
	4	22	18	17	18	17	16	5	
	5	23	18	16	18	16	12	4	
	6	24	16	16	16	14	9	4	
	7	26	15	15	13	10	9	2	
	8	27	13	15	12	9	6	2	
	9	30	13	15	11	7	3	1	
25	1	3	11	6	9	5	21	19	
	2	7	10	6	9	4	21	18	
	3	8	10	6	9	4	20	17	
	4	9	10	5	9	3	20	16	
	5	15	9	5	9	3	19	15	
	6	16	9	5	9	2	19	14	
	7	20	8	4	9	2	18	14	
	8	22	8	4	9	1	18	12	
	9	29	8	4	9	1	17	12	
26	1	3	19	25	29	17	10	9	
	2	4	18	22	28	15	9	9	
	3	6	18	19	28	13	9	9	
	4	10	18	17	28	12	8	9	
	5	13	18	14	28	9	6	9	
	6	19	18	11	27	8	5	9	
	7	20	18	9	27	7	5	9	
	8	28	18	5	27	5	4	9	
	9	29	18	3	27	3	3	9	
27	1	1	24	22	13	13	14	18	
	2	5	21	22	12	12	14	17	
	3	6	21	18	12	10	14	17	
	4	7	16	17	12	9	13	16	
	5	8	13	15	11	9	12	16	
	6	10	12	14	10	6	12	15	
	7	18	10	13	10	6	11	15	
	8	22	7	9	10	4	11	14	
	9	28	5	8	9	4	11	13	
28	1	3	28	14	15	24	18	19	
	2	10	27	14	15	24	14	19	
	3	11	27	12	15	21	14	17	
	4	16	26	12	15	19	10	16	
	5	17	25	11	15	18	10	16	
	6	19	23	9	15	16	9	16	
	7	20	22	9	15	14	5	14	
	8	22	22	7	15	10	3	13	
	9	27	21	6	15	8	2	13	
29	1	10	26	27	24	16	16	15	
	2	11	22	26	22	15	14	15	
	3	12	19	26	22	15	13	15	
	4	15	16	25	20	15	10	15	
	5	16	13	24	20	15	8	15	
	6	19	10	24	18	15	7	14	
	7	20	9	23	16	15	5	14	
	8	23	5	23	15	15	5	14	
	9	28	5	22	15	15	3	14	
30	1	1	17	26	12	18	1	24	
	2	2	16	25	11	17	1	24	
	3	6	16	25	10	16	1	20	
	4	10	16	24	7	15	1	16	
	5	13	15	24	7	15	1	16	
	6	16	15	24	6	14	1	14	
	7	21	14	24	5	12	1	9	
	8	25	14	23	2	11	1	7	
	9	26	13	23	1	11	1	5	
31	1	1	28	23	22	24	3	22	
	2	6	28	20	20	23	3	20	
	3	8	27	20	19	20	3	20	
	4	9	25	19	18	17	3	19	
	5	11	24	17	15	16	3	17	
	6	12	24	16	14	11	3	16	
	7	17	23	16	14	8	3	15	
	8	18	22	14	12	8	3	14	
	9	27	21	14	11	3	3	14	
32	1	10	28	20	30	13	24	27	
	2	17	26	20	30	11	23	26	
	3	18	23	17	30	10	23	25	
	4	19	21	17	30	9	22	21	
	5	23	18	14	30	8	22	20	
	6	24	14	13	30	6	22	20	
	7	25	12	11	30	5	21	18	
	8	27	9	11	30	5	21	14	
	9	30	7	9	30	3	21	13	
33	1	2	3	23	18	14	29	3	
	2	4	2	18	16	13	29	2	
	3	18	2	15	15	11	28	2	
	4	19	2	13	13	10	28	2	
	5	21	2	12	11	10	27	2	
	6	22	2	8	9	10	26	2	
	7	23	2	8	7	9	26	2	
	8	25	2	5	5	8	26	2	
	9	28	2	1	3	7	25	2	
34	1	1	4	26	12	9	16	17	
	2	2	4	24	10	8	16	16	
	3	4	4	22	9	8	16	14	
	4	5	4	22	9	8	16	11	
	5	18	4	21	8	7	16	11	
	6	23	4	19	7	7	16	9	
	7	25	4	17	6	6	16	6	
	8	28	4	15	6	6	16	6	
	9	29	4	15	5	6	16	4	
35	1	4	26	14	24	28	21	26	
	2	5	26	13	20	26	18	26	
	3	9	26	13	18	24	15	21	
	4	11	26	13	16	24	14	18	
	5	12	25	11	11	21	10	16	
	6	15	25	11	11	19	9	14	
	7	16	25	11	6	18	7	12	
	8	23	24	9	3	17	5	9	
	9	28	24	9	3	15	4	5	
36	1	1	26	19	21	29	21	21	
	2	2	26	18	20	26	21	20	
	3	8	25	17	18	22	21	20	
	4	10	25	15	18	21	21	19	
	5	11	24	15	16	18	21	19	
	6	13	24	15	16	16	20	18	
	7	14	24	14	14	15	20	18	
	8	28	23	12	14	11	20	17	
	9	30	23	12	13	10	20	17	
37	1	6	13	23	6	5	27	16	
	2	7	12	22	6	5	23	14	
	3	14	10	21	5	5	20	14	
	4	17	10	21	4	4	18	12	
	5	18	9	20	4	3	15	11	
	6	19	8	19	3	3	13	11	
	7	24	7	19	3	2	8	9	
	8	27	6	18	1	2	6	8	
	9	28	6	18	1	2	4	7	
38	1	6	17	14	25	12	28	22	
	2	7	15	14	25	12	27	20	
	3	9	14	13	25	12	27	19	
	4	12	13	12	25	12	26	18	
	5	20	12	12	25	11	25	15	
	6	23	10	12	25	11	25	13	
	7	27	9	11	25	11	25	13	
	8	28	8	10	25	10	24	10	
	9	30	7	10	25	10	24	8	
39	1	2	28	18	11	27	29	24	
	2	3	27	15	11	26	26	24	
	3	11	27	14	11	22	21	23	
	4	14	24	13	11	18	19	23	
	5	15	23	12	11	17	16	22	
	6	23	22	10	11	16	15	21	
	7	24	19	9	11	10	13	21	
	8	25	19	6	11	8	7	20	
	9	28	18	4	11	7	7	19	
40	1	1	19	21	24	13	26	28	
	2	2	19	21	24	12	25	27	
	3	11	18	21	23	12	24	25	
	4	14	15	20	23	11	23	25	
	5	16	15	20	22	10	22	24	
	6	18	12	20	22	8	21	24	
	7	22	11	19	21	8	19	23	
	8	25	10	19	21	6	19	21	
	9	26	8	19	21	5	17	21	
41	1	1	20	27	12	16	10	17	
	2	3	19	26	11	14	9	17	
	3	9	19	26	11	14	9	16	
	4	10	19	26	9	12	9	16	
	5	13	19	26	9	10	8	16	
	6	18	19	26	7	9	8	15	
	7	19	19	26	6	8	7	15	
	8	22	19	26	4	4	7	14	
	9	25	19	26	4	4	7	13	
42	1	2	24	30	11	22	28	29	
	2	5	21	27	10	21	26	27	
	3	6	19	25	10	19	24	27	
	4	7	17	22	9	17	23	27	
	5	8	16	19	8	15	21	26	
	6	10	15	18	8	12	20	25	
	7	16	14	15	7	11	19	25	
	8	27	12	11	7	8	17	25	
	9	30	10	9	6	8	17	24	
43	1	3	19	7	30	24	29	14	
	2	4	19	7	28	24	27	12	
	3	7	19	7	25	22	25	11	
	4	8	19	7	22	21	23	9	
	5	10	19	6	22	19	22	9	
	6	19	18	6	19	18	20	7	
	7	20	18	5	17	17	18	7	
	8	21	18	5	15	16	18	5	
	9	30	18	5	14	15	16	4	
44	1	3	15	25	7	25	27	20	
	2	7	15	22	6	23	26	20	
	3	8	15	21	6	23	25	19	
	4	9	15	21	5	21	25	19	
	5	11	15	20	4	21	24	17	
	6	23	15	19	4	21	22	17	
	7	26	15	17	3	20	22	17	
	8	27	15	16	3	18	21	15	
	9	28	15	15	3	18	19	15	
45	1	1	5	13	25	24	25	28	
	2	3	5	13	24	22	24	24	
	3	9	5	13	24	19	24	22	
	4	15	5	13	24	16	22	21	
	5	16	5	12	24	15	22	17	
	6	17	4	12	23	11	21	12	
	7	24	4	12	23	11	20	11	
	8	26	4	12	23	7	19	8	
	9	27	4	12	23	7	19	6	
46	1	2	12	28	29	26	15	30	
	2	3	12	28	26	25	14	27	
	3	7	12	28	26	23	11	26	
	4	9	12	28	25	21	11	25	
	5	10	12	27	24	20	8	24	
	6	14	12	27	23	18	7	22	
	7	15	12	27	22	16	6	20	
	8	19	12	27	20	16	2	19	
	9	30	12	27	20	14	2	19	
47	1	9	30	6	11	29	8	7	
	2	16	29	6	10	25	8	7	
	3	20	28	6	10	22	8	7	
	4	21	27	6	9	18	8	7	
	5	23	25	5	8	16	8	7	
	6	25	25	5	8	13	8	7	
	7	27	23	5	6	8	8	7	
	8	28	22	5	6	7	8	7	
	9	29	21	5	5	5	8	7	
48	1	3	11	12	11	22	3	11	
	2	6	9	11	8	19	3	11	
	3	8	9	11	7	19	3	10	
	4	10	8	11	6	16	3	9	
	5	17	7	11	6	12	3	9	
	6	19	5	11	4	10	2	9	
	7	20	4	11	3	9	2	8	
	8	21	4	11	2	6	2	7	
	9	23	3	11	2	3	2	7	
49	1	5	17	26	21	26	30	23	
	2	8	16	25	19	26	25	22	
	3	11	15	25	19	26	23	22	
	4	12	15	24	16	25	20	22	
	5	13	13	24	13	25	18	20	
	6	16	11	23	12	24	14	20	
	7	18	9	23	11	24	14	19	
	8	22	8	22	8	23	9	19	
	9	28	7	22	6	23	8	18	
50	1	7	21	16	25	12	10	14	
	2	8	19	16	24	10	9	14	
	3	9	16	14	22	9	8	13	
	4	14	14	13	20	7	8	10	
	5	17	14	11	19	7	6	9	
	6	21	12	11	17	4	6	8	
	7	24	10	10	16	3	6	8	
	8	25	8	9	14	3	4	5	
	9	27	7	7	13	2	4	5	
51	1	8	18	16	17	28	9	24	
	2	10	17	15	15	28	9	22	
	3	13	17	15	14	26	8	22	
	4	16	16	15	12	26	7	21	
	5	18	16	14	8	24	5	21	
	6	19	15	14	7	23	5	20	
	7	21	15	13	5	23	4	20	
	8	23	15	13	4	22	3	19	
	9	26	14	12	2	21	1	19	
52	1	0	0	0	0	0	0	0	
************************************************************************

 RESOURCE AVAILABILITIES 
	R 1	R 2	R 3	R 4	N 1	N 2
	97	91	96	93	725	778

************************************************************************
